s td 213 10 256
b 1 3 51 94
b 2 6 84 94
b 3 5 12 254
b 4 15 112 209
b 5 18 179 256
b 6 20 38 256
b 7 24 34 95
b 8 32 86 111
b 9 39 78 108
b 10 33 46 212
b 11 48 119 219
b 12 49 76 193
b 13 41 53 108
b 14 35 56 89
b 15 16 51 62
b 16 37 64 103
b 17 70 76 224
b 18 74 112 181
b 19 5 75 118
b 20 77 209 222
b 21 81 122 170
b 22 2 82 245
b 23 90 127 174
b 24 92 126 132
b 25 93 202 239
b 26 101 120 122
b 27 102 225 231
b 28 103 114 137
b 29 71 115 235
b 30 67 116 235
b 31 57 78 121
b 32 122 170
b 33 123 177 190
b 34 54 128 197
b 35 136 158 193
b 36 106 137 146
b 37 50 150 227
b 38 152 165 222
b 39 42 61 154
b 40 29 50 159
b 41 45 161 188
b 42 71 169 184
b 43 52 158 170
b 44 40 97 183
b 45 9 185 217
b 46 140 186 241
b 47 168 189 196
b 48 34 88 191
b 49 66 133 194
b 50 9 104 203
b 51 8 172 207
b 52 100 208 212
b 53 16 25 119
b 54 117 218 226
b 55 69 131 228
b 56 134 138 237
b 57 180 182 238
b 58 65 166 243
b 59 35 178 244
b 60 2 57 80
b 61 21 85 248
b 62 5 118 254
b 63 9 104 217
b 64 16 25 51
b 65 21 85 130
b 66 34 88 95
b 67 35 89 178
b 68 29 50 227
b 69 25 51 94
b 70 54 188 197
b 71 57 78 80
b 72 71 184 235
b 73 76 193 224
b 74 78 80 108
b 75 59 85 130 148
b 76 25 84 94
b 77 37 103 137
b 78 41 80 108
b 79 112 181 209
b 80 58 59 130 148
b 81 37 106 137
b 82 52 158 193
b 83 165 177 222
b 84 177 190 222
b 85 52 193 224
b 86 181 209 222
b 87 33 100 212
b 88 181 190 222
b 89 67 184 235
b 90 38 179 256
b 91 8 86 145 172
b 92 19 37 131 142
b 93 25 84 110 252
b 94 7 29 84 227
b 95 13 30 66 188
b 96 33 100 141 187
b 97 1 10 61 133 178 187 205 213 217 246
b 98 10 100 133 178 184 187 205 213 224 246
b 99 65 100 133 184 187 224
b 100 4 65 133 184 187
b 101 4 65 133 166
b 102 65 100 141 187 224
b 103 10 100 167 178 184 200 205 213 224 246
b 104 10 97 100 167 178 184 200 205 213 224
b 105 10 17 97 100 167 178 200 205 213 224
b 106 10 17 97 105 167 172 178 205 213 224
b 107 10 17 97 105 167 171 172 178 205 213
b 108 10 97 105 162 167 171 172 178 205 213
b 109 10 97 109 162 171 172 178 205 213 233
b 110 10 109 124 162 171 172 178 205 213 233
b 111 10 109 113 124 162 172 178 205 213 233
b 112 10 111 113 124 145 172 178 205 213 233
b 113 10 111 113 124 145 178 195 205 213 233
b 114 10 111 113 145 178 192 195 205 213 233
b 115 10 44 111 178 192 195 205 213 229 233
b 116 10 44 111 178 195 205 213 214 223 229
b 117 10 111 174 178 195 205 213 214 223 229
b 118 10 36 111 174 178 195 205 213 214 223
b 119 10 36 111 174 178 179 205 213 223 250
b 120 10 36 73 111 139 174 178 179 205 250
b 121 10 36 73 111 139 174 178 179 206 221
b 122 26 36 73 111 174 178 179 206 221 254
b 123 26 36 73 111 155 174 178 179 221 254
b 124 26 31 36 73 111 155 174 178 179 254
b 125 31 36 111 155 157 174 178 179 182 254
b 126 36 95 111 155 157 174 178 179 182 190
b 127 36 95 155 157 173 174 176 179 182 190
b 128 36 95 138 155 173 174 176 179 182 190
b 129 55 95 138 155 173 174 176 179 182 190
b 130 55 138 155 174 176 179 182 190 240 242
b 131 55 138 155 174 179 182 190 218 240 242
b 132 55 59 138 174 179 182 190 218 240 242
b 133 55 59 138 148 174 179 190 218 241 242
b 134 55 138 148 163 174 190 241 242
b 135 23 55 135 138 148 163 174 242
b 136 23 37 55 135 148 174 242
b 137 23 37 135 148 174 234 242
b 138 28 37 63 135 148 174 234
b 139 28 37 63 99 135 174
b 140 22 28 37 63 99 135
b 141 22 27 28 37 99 131
b 142 22 27 99 131 199
b 143 27 47 99 131 199
b 144 22 27 131 199 230
b 145 27 28 37 131 142
b 146 28 63 148 151 234
b 147 23 37 55 106
b 148 23 135 138 163 216
b 149 58 59 148 179 218 241
b 150 58 179 218 239 241
b 151 58 68 218 239 241
b 152 95 111 153 178 190
b 153 153 178 181 190
b 154 31 147 157 182 254
b 155 147 180 182 254
b 156 10 72 139 206 221
b 157 60 73 139 205 250
b 158 107 179 213 223 247 250
b 159 98 107 223 247 250
b 160 107 179 213 232 247
b 161 44 192 229 233 251
b 162 86 111 145 172
b 163 1 10 61 133 160 164 187 205 217 246
b 164 1 61 83 133 160 164 187 217 227 246
b 165 1 61 83 129 133 156 160 187 227 246
b 166 1 61 84 129 133 156 187 201 227 246
b 167 7 84 156 201 227
b 168 1 61 84 129 133 143 187 201 246 252
b 169 1 129 133 143 149 187 201 231 246 252
b 170 133 143 149 187 220 231 246 252
b 171 43 143 149 187 220 246
b 172 11 43 143 149 246
b 173 132 133 220 231 236 252
b 174 132 133 144 188 220 236
b 175 132 133 144 168 188 220
b 176 13 133 144 168 188 220
b 177 13 66 133 188
b 178 13 144 168 204 220
b 179 132 144 168 188 198
b 180 132 211 231 236 252
b 181 1 96 129 143 149 201 231
b 182 1 14 96 143 149 201 231
b 183 1 14 96 125 143 231 253
b 184 80 96 125 143 231 253
b 185 80 125 143 231 249
b 186 1 14 91 125 253
b 187 61 84 110 143 252
b 188 83 129 156 160 255
b 189 83 87 164 217 227
b 190 10 160 164 205 210
b 191 1 61 79 178 213 217
b 192 1 61 79 175 213
b 193 38 179 232 247
b 194 40 97 109 233
b 195 41 80 96 253
b 196 1 42 61 175
b 197 45 144 188 198
b 198 144 188 197 236
b 199 52 65 141 224
b 200 4 67 184 187
b 201 47 69 131 199
b 202 131 199 215 230
b 203 88 95 111 153
b 204 89 153 178 181
b 205 79 104 178 217
b 206 117 155 218 240
b 207 118 147 180 254
b 208 126 132 211 252
b 209 63 99 127 174
b 210 36 134 138 173
b 211 140 163 190 241
b 212 58 68 202 239
b 213 80 225 231 249
1 69
2 76
3 62
4 79
5 90
6 90
7 66
8 162
9 74
10 87
11 53
12 73
13 78
14 67
15 64
16 77
17 73
18 79
19 62
20 86
21 32
22 60
23 209
24 208
25 212
26 32
27 213
28 77
29 72
30 89
31 71
32 43
33 84
34 70
35 82
36 81
37 68
38 83
39 196
40 68
41 197
42 72
43 82
44 194
45 63
46 211
47 175
48 66
49 177
50 63
51 91
52 87
53 64
54 206
55 201
56 210
57 155
58 101
59 67
60 71
61 65
62 207
63 205
64 69
65 75
66 203
67 204
68 94
69 76
70 198
71 74
72 89
73 85
74 78
75 80
76 93
77 81
78 195
79 86
80 149
81 147
82 85
83 84
84 88
85 199
86 88
87 96
88 153
89 200
90 193
91 162
92 145
93 187
94 167
95 177
96 102
97 98
97 163
97 191
98 99
98 103
99 100
99 102
100 200
100 101
102 199
103 104
104 105
105 106
106 107
107 108
108 109
109 194
109 110
110 111
111 112
112 113
112 162
113 114
114 115
115 116
115 161
116 117
117 118
118 119
119 120
119 158
120 121
120 157
121 122
121 156
122 123
123 124
124 125
125 126
125 154
126 127
126 152
127 128
128 210
128 129
129 130
130 131
131 206
131 132
132 133
133 134
133 149
134 211
134 135
135 136
135 148
136 137
136 147
137 138
138 139
138 146
139 209
139 140
140 141
141 142
141 145
142 143
142 144
143 201
144 202
149 150
150 151
151 212
152 203
152 153
153 204
154 155
155 207
158 159
158 160
160 193
163 164
163 190
164 165
164 189
165 166
165 188
166 167
166 168
168 169
168 187
169 170
169 181
170 171
170 173
171 172
173 174
173 180
174 198
174 175
175 176
175 179
176 177
176 178
179 197
180 208
181 182
182 183
183 184
183 186
184 195
184 185
185 213
191 205
191 192
192 196
